(set-info :smt-lib-version 2.6)
(set-logic QF_S)
(set-info :source |
Generated by: Murphy Berzish, Mitja Kulczynski, Federico Mora, Florin Manea, Joel Day, Dirk Nowotka, Vijay Ganesh, Zhengyang Lu
Generated on: 2020-10-01
Description: Translated from a collection of real-world regex queries, AutomataArk, collected by Loris D’Antoni and Fang Wang: https://github.com/lorisdanto/automatark
Application: Evaluate solvers on real-world regex queries
Target solver: Z3str3RE, CVC4, OSTRICH, Z3seq, Z3str3, Z3-Trau
Publications: Berzish, M., Kulczynski, M., Mora, F., Manea, F., Day, J. D., Nowotka, D., & Ganesh, V. (2021, July). An SMT solver for regular expressions and linear arithmetic over string length. In CAV 2021.
|)
(set-info :license "https://creativecommons.org/licenses/by/4.0/")
(set-info :category "industrial")
(set-info :status unsat)

(declare-const X String)
(assert (not (str.in_re X (re.++ (str.to_re "User-Agent:") (re.+ (re.union (str.to_re " ") (str.to_re "\u{9}") (str.to_re "\u{a}") (str.to_re "\u{c}") (str.to_re "\u{d}"))) (str.to_re "sErver") (re.+ (re.union (str.to_re " ") (str.to_re "\u{9}") (str.to_re "\u{a}") (str.to_re "\u{c}") (str.to_re "\u{d}"))) (str.to_re "-~-GREATHost:\u{a}")))))
(assert (str.in_re X (re.++ (re.union (re.++ (str.to_re "0") (re.range "0" "9")) (re.++ (str.to_re "1") (re.range "0" "1"))) (str.to_re ":") (re.union (re.++ (str.to_re "0") (re.range "0" "9")) (re.++ (str.to_re "1") (re.range "0" "9")) (re.++ (str.to_re "2") (re.range "0" "9")) (re.++ (str.to_re "3") (re.range "0" "9")) (re.++ (str.to_re "4") (re.range "0" "9")) (re.++ (str.to_re "5") (re.range "0" "9"))) (str.to_re ":") (re.union (re.++ (str.to_re "0") (re.range "0" "9")) (re.++ (str.to_re "1") (re.range "0" "9")) (re.++ (str.to_re "2") (re.range "0" "9")) (re.++ (str.to_re "3") (re.range "0" "9")) (re.++ (str.to_re "4") (re.range "0" "9")) (re.++ (str.to_re "5") (re.range "0" "9"))) (re.* (re.union (str.to_re " ") (str.to_re "\u{9}") (str.to_re "\u{a}") (str.to_re "\u{c}") (str.to_re "\u{d}"))) (re.union (str.to_re "AM") (str.to_re "PM") (str.to_re "A") (str.to_re "P")) (str.to_re "\u{a}"))))
(assert (str.in_re X (re.++ (re.union (re.++ (str.to_re "429496729") (re.range "0" "6")) (re.++ (str.to_re "42949672") (re.range "0" "8") (re.range "0" "9")) (re.++ (str.to_re "4294967") (re.union (str.to_re "0") (str.to_re "1")) ((_ re.loop 2 2) (re.range "0" "9"))) (re.++ (str.to_re "429496") (re.range "0" "6") ((_ re.loop 3 3) (re.range "0" "9"))) (re.++ (str.to_re "42949") (re.range "0" "5") ((_ re.loop 4 4) (re.range "0" "9"))) (re.++ (str.to_re "4294") (re.range "0" "8") ((_ re.loop 5 5) (re.range "0" "9"))) (re.++ (str.to_re "429") (re.range "0" "3") ((_ re.loop 6 6) (re.range "0" "9"))) (re.++ (str.to_re "42") (re.range "0" "8") ((_ re.loop 7 7) (re.range "0" "9"))) (re.++ (str.to_re "4") (re.union (str.to_re "0") (str.to_re "1")) ((_ re.loop 8 8) (re.range "0" "9"))) (re.++ (re.range "1" "3") ((_ re.loop 9 9) (re.range "0" "9"))) (re.++ (re.range "1" "9") ((_ re.loop 8 8) (re.range "0" "9"))) (re.++ (re.range "1" "9") ((_ re.loop 7 7) (re.range "0" "9"))) (re.++ (re.range "1" "9") ((_ re.loop 6 6) (re.range "0" "9"))) (re.++ (re.range "1" "9") ((_ re.loop 5 5) (re.range "0" "9"))) (re.++ (re.range "1" "9") ((_ re.loop 4 4) (re.range "0" "9"))) (re.++ (re.range "1" "9") ((_ re.loop 3 3) (re.range "0" "9"))) (re.++ (re.range "1" "9") ((_ re.loop 2 2) (re.range "0" "9"))) (re.++ (re.range "1" "9") (re.range "0" "9")) (re.range "0" "9")) (str.to_re "\u{a}"))))
(assert (str.in_re X (re.++ (str.to_re "/5FDC81917DE08A41A6AC") (re.union (re.++ (str.to_re "E9B8ECA1EE") re.allchar (str.to_re "8")) (re.++ re.allchar (str.to_re "98ECB1EEA8E"))) (str.to_re "/smi\u{a}"))))
(assert (str.in_re X (re.++ (str.to_re "/.m4v") (re.union (str.to_re "?") (str.to_re "\u{5c}") (str.to_re "/")) (str.to_re "/smiU\u{a}"))))
(check-sat)

(exit)
